numOfInstructors = 35;

INSTRUCTORS = {T1, T2, T3, T4, T5, T6, T7, T8, T9, T10, T11, T12, T13, T14, T15, T16, T17, T18, T19, T20, T21, T22, T23, T24, T25, T26, T27, T28, T29, T30, T31, T32, T33, T34, T35};

num_of_lecture_rooms = 20;
num_of_lab_rooms = 20;

CLASSES = {E, C1, C2, C3, C4, C5, C6, C7, C8, C9, C10, C11, C12, C13, C14, C15, C16, C17, C18, C19, C20, C21, C22, C23, C24, C25, C26, C27, C28, C29, C30, C31, C32, C33, C34, C35, C36, C37, C38, C39, C40, C41, C42, C43, C44, C45, C46, C47, C48, C49, C50, C51, C52, C53, C54, C55, C56, C57, C58, C59, C60, C61, C62, C63, C64, C65, C66, C67, C68, C69, C70, C71, C72, C73, C74, C75, C76, C77, C78, C79, C80, C81, C82, C83, C84, C85, C86, C87, C88, C89, C90, C91, C92, C93, C94, C95, C96, C97, C98, C99, C100, C101, C102, C103, C104, C105, C106, C107, C108, C109, C110};

numOfConflicts = 6;

DISJUNCT_INPUT = [C29, C32, C32, C35, C39, C41, C39, C44, C53, C56, C53, C59];

numOfParallelLectures = 0;

PARALLEL_LEC_INPUT = [];

W_BUSY_INPUT = [
0,
0,
0,
0,
0,
0,
0,
0,
0,
0,
0,
0,

0,
0,
0,
0,
0,
0,
0,
0,
0,
0,
0,
0,

0,
0,
0,
0,
0,
0,
0,
0,
0,
0,
0,
0,

0,
0,
0,
0,
0,
0,
0,
0,
0,
0,
0,
0,

0,
0,
0,
0,
0,
0,
0,
0,
0,
0,
0,
0,

0,
0,
0,
0,
0,
0,
0,
0,
0,
0,
0,
0,

0,
0,
0,
0,
0,
0,
0,
0,
0,
0,
0,
0,

0,
0,
0,
0,
0,
0,
0,
0,
0,
0,
0,
0,

0,
0,
0,
0,
0,
0,
0,
0,
0,
0,
0,
0,

0,
0,
0,
0,
0,
0,
0,
0,
0,
0,
0,
0,

0,
0,
0,
0,
0,
0,
0,
0,
0,
0,
0,
0,

0,
0,
0,
0,
0,
0,
0,
0,
0,
0,
0,
0,

0,
0,
0,
0,
0,
0,
0,
0,
0,
0,
0,
0,

0,
0,
0,
0,
0,
0,
0,
0,
0,
0,
0,
0,

0,
0,
0,
0,
0,
0,
0,
0,
0,
0,
0,
0,

0,
0,
0,
0,
0,
0,
0,
0,
0,
0,
0,
0,

0,
0,
0,
0,
0,
0,
0,
0,
0,
0,
0,
0,

0,
0,
0,
0,
0,
0,
0,
0,
0,
0,
0,
0,

0,
0,
0,
0,
0,
0,
0,
0,
0,
0,
0,
0,

0,
0,
0,
0,
0,
0,
0,
0,
0,
0,
0,
0,

0,
0,
0,
0,
0,
0,
0,
0,
0,
0,
0,
0,

0,
0,
0,
0,
0,
0,
0,
0,
0,
0,
0,
0,

0,
0,
0,
0,
0,
0,
0,
0,
0,
0,
0,
0,

0,
0,
0,
0,
0,
0,
0,
0,
0,
0,
0,
0,

0,
0,
0,
0,
0,
0,
0,
0,
0,
0,
0,
0,

0,
0,
0,
0,
0,
0,
0,
0,
0,
0,
0,
0,

0,
0,
0,
0,
0,
0,
0,
0,
0,
0,
0,
0,

0,
0,
0,
0,
0,
0,
0,
0,
0,
0,
0,
0,

0,
0,
0,
0,
0,
0,
0,
0,
0,
0,
0,
0,

0,
0,
0,
0,
0,
0,
0,
0,
0,
0,
0,
0,

0,
0,
0,
0,
0,
0,
0,
0,
0,
0,
0,
0,

0,
0,
0,
0,
0,
0,
0,
0,
0,
0,
0,
0,

0,
0,
0,
0,
0,
0,
0,
0,
0,
0,
0,
0,

0,
0,
0,
0,
0,
0,
0,
0,
0,
0,
0,
0,

0,
0,
0,
0,
0,
0,
0,
0,
0,
0,
0,
0];


BUSY_INPUT = [
0, 0, 0, 0, 0,
0, 0, 0, 0, 0,
0, 0, 0, 0, 0,
0, 0, 0, 0, 0,
0, 0, 0, 0, 0,
0, 0, 0, 0, 0,
0, 0, 0, 0, 0,
0, 0, 0, 0, 0,

0, 0, 0, 0, 0,
0, 0, 0, 0, 0,
0, 0, 0, 0, 0,
0, 0, 0, 0, 0,
0, 0, 0, 0, 0,
0, 0, 0, 0, 0,
0, 0, 0, 0, 0,
0, 0, 0, 0, 0,

0, 0, 0, 0, 0,
0, 0, 0, 0, 0,
0, 0, 0, 0, 0,
0, 0, 0, 0, 0,
0, 0, 0, 0, 0,
0, 0, 0, 0, 0,
0, 0, 0, 0, 0,
0, 0, 0, 0, 0,

0, 0, 0, 0, 0,
0, 0, 0, 0, 0,
0, 0, 0, 0, 0,
0, 0, 0, 0, 0,
0, 0, 0, 0, 0,
0, 0, 0, 0, 0,
0, 0, 0, 0, 0,
0, 0, 0, 0, 0,

0, 0, 0, 0, 0,
0, 0, 0, 0, 0,
0, 0, 0, 0, 0,
0, 0, 0, 0, 0,
0, 0, 0, 0, 0,
0, 0, 0, 0, 0,
0, 0, 0, 0, 0,
0, 0, 0, 0, 0,

0, 0, 0, 0, 0,
0, 0, 0, 0, 0,
0, 0, 0, 0, 0,
0, 0, 0, 0, 0,
0, 0, 0, 0, 0,
0, 0, 0, 0, 0,
0, 0, 0, 0, 0,
0, 0, 0, 0, 0,

0, 0, 0, 0, 0,
0, 0, 0, 0, 0,
0, 0, 0, 0, 0,
0, 0, 0, 0, 0,
0, 0, 0, 0, 0,
0, 0, 0, 0, 0,
0, 0, 0, 0, 0,
0, 0, 0, 0, 0,

1, 0, 0, 1, 0,
1, 0, 0, 1, 0,
1, 0, 0, 1, 0,
1, 0, 0, 1, 0,
1, 0, 0, 1, 0,
1, 0, 0, 1, 0,
1, 0, 0, 1, 0,
1, 0, 0, 1, 0,

0, 0, 0, 0, 0,
0, 0, 0, 0, 0,
0, 0, 0, 0, 0,
0, 0, 0, 0, 0,
0, 0, 0, 0, 0,
0, 0, 0, 0, 0,
0, 0, 0, 0, 0,
0, 0, 0, 0, 0,

0, 0, 0, 0, 0,
0, 0, 0, 0, 0,
0, 0, 0, 0, 0,
0, 0, 0, 0, 0,
0, 0, 0, 0, 0,
0, 0, 0, 0, 0,
0, 0, 0, 0, 0,
0, 0, 0, 0, 0,

0, 0, 0, 0, 0,
0, 0, 0, 0, 0,
0, 0, 0, 0, 0,
0, 0, 0, 0, 0,
0, 0, 0, 0, 0,
0, 0, 0, 0, 0,
0, 0, 0, 0, 0,
0, 0, 0, 0, 0,

0, 0, 0, 0, 0,
0, 0, 0, 0, 0,
0, 0, 0, 0, 0,
0, 0, 0, 0, 0,
0, 0, 0, 0, 0,
0, 0, 0, 0, 0,
0, 0, 0, 0, 0,
0, 0, 0, 0, 0,

0, 0, 0, 0, 0,
0, 0, 0, 0, 0,
0, 0, 0, 0, 0,
0, 0, 0, 0, 0,
0, 0, 0, 0, 0,
0, 0, 0, 0, 0,
0, 0, 0, 0, 0,
0, 0, 0, 0, 0,

0, 0, 0, 0, 0,
0, 0, 0, 0, 0,
0, 0, 0, 0, 0,
0, 0, 0, 0, 0,
0, 0, 0, 0, 0,
0, 0, 0, 0, 0,
0, 0, 0, 0, 0,
0, 0, 0, 0, 0,

0, 0, 0, 0, 0,
0, 0, 0, 0, 0,
0, 0, 0, 0, 0,
0, 0, 0, 0, 0,
0, 0, 0, 0, 0,
0, 0, 0, 0, 0,
0, 0, 0, 0, 0,
0, 0, 0, 0, 0,

0, 0, 0, 0, 0,
0, 0, 0, 0, 0,
0, 0, 0, 0, 0,
0, 0, 0, 0, 0,
0, 0, 0, 0, 0,
0, 0, 0, 0, 0,
0, 0, 0, 0, 0,
0, 0, 0, 0, 0,

0, 0, 0, 0, 0,
0, 0, 0, 0, 0,
0, 0, 0, 0, 0,
0, 0, 0, 0, 0,
0, 0, 0, 0, 0,
0, 0, 0, 0, 0,
0, 0, 0, 0, 0,
0, 0, 0, 0, 0,

0, 0, 0, 0, 0,
0, 0, 0, 0, 0,
0, 0, 0, 0, 0,
0, 0, 0, 0, 0,
0, 0, 0, 0, 0,
0, 0, 0, 0, 0,
0, 0, 0, 0, 0,
0, 0, 0, 0, 0,

0, 0, 0, 0, 0,
0, 0, 0, 0, 0,
0, 0, 0, 0, 0,
0, 0, 0, 0, 0,
0, 0, 0, 0, 0,
0, 0, 0, 0, 0,
0, 0, 0, 0, 0,
0, 0, 0, 0, 0,

0, 0, 0, 0, 0,
0, 0, 0, 0, 0,
0, 0, 0, 0, 0,
0, 0, 0, 0, 0,
0, 0, 0, 0, 0,
0, 0, 0, 0, 0,
0, 0, 0, 0, 0,
0, 0, 0, 0, 0,

0, 0, 0, 0, 0,
0, 0, 0, 0, 0,
0, 0, 0, 0, 0,
0, 0, 0, 0, 0,
0, 0, 0, 0, 0,
0, 0, 0, 0, 0,
0, 0, 0, 0, 0,
0, 0, 0, 0, 0,

0, 0, 0, 0, 0,
0, 0, 0, 0, 0,
0, 0, 0, 0, 0,
0, 0, 0, 0, 0,
0, 0, 0, 0, 0,
0, 0, 0, 0, 0,
0, 0, 0, 0, 0,
0, 0, 0, 0, 0,

0, 0, 0, 0, 0,
0, 0, 0, 0, 0,
0, 0, 0, 0, 0,
0, 0, 0, 0, 0,
0, 0, 0, 0, 0,
0, 0, 0, 0, 0,
0, 0, 0, 0, 0,
0, 0, 0, 0, 0,

0, 0, 0, 0, 0,
0, 0, 0, 0, 0,
0, 0, 0, 0, 0,
0, 0, 0, 0, 0,
0, 0, 0, 0, 0,
0, 0, 0, 0, 0,
0, 0, 0, 0, 0,
0, 0, 0, 0, 0,

0, 0, 0, 0, 0,
0, 0, 0, 0, 0,
0, 0, 0, 0, 0,
0, 0, 0, 0, 0,
0, 0, 0, 0, 0,
0, 0, 0, 0, 0,
0, 0, 0, 0, 0,
0, 0, 0, 0, 0,

0, 0, 0, 0, 0,
0, 0, 0, 0, 0,
0, 0, 0, 0, 0,
0, 0, 0, 0, 0,
0, 0, 0, 0, 0,
0, 0, 0, 0, 0,
0, 0, 0, 0, 0,
0, 0, 0, 0, 0,

0, 0, 0, 0, 0,
0, 0, 0, 0, 0,
0, 0, 0, 0, 0,
0, 0, 0, 0, 0,
0, 0, 0, 0, 0,
0, 0, 0, 0, 0,
0, 0, 0, 0, 0,
0, 0, 0, 0, 0,

0, 0, 0, 0, 0,
0, 0, 0, 0, 0,
0, 0, 0, 0, 0,
0, 0, 0, 0, 0,
0, 0, 0, 0, 0,
0, 0, 0, 0, 0,
0, 0, 0, 0, 0,
0, 0, 0, 0, 0,

0, 0, 0, 0, 0,
0, 0, 0, 0, 0,
0, 0, 0, 0, 0,
0, 0, 0, 0, 0,
0, 0, 0, 0, 0,
0, 0, 0, 0, 0,
0, 0, 0, 0, 0,
0, 0, 0, 0, 0,

0, 0, 0, 0, 0,
0, 0, 0, 0, 0,
0, 0, 0, 0, 0,
0, 0, 0, 0, 0,
0, 0, 0, 0, 0,
0, 0, 0, 0, 0,
0, 0, 0, 0, 0,
0, 0, 0, 0, 0,

0, 0, 0, 0, 0,
0, 0, 0, 0, 0,
0, 0, 0, 0, 0,
0, 0, 0, 0, 0,
0, 0, 0, 0, 0,
0, 0, 0, 0, 0,
0, 0, 0, 0, 0,
0, 0, 0, 0, 0,

0, 0, 0, 0, 0,
0, 0, 0, 0, 0,
0, 0, 0, 0, 0,
0, 0, 0, 0, 0,
0, 0, 0, 0, 0,
0, 0, 0, 0, 0,
0, 0, 0, 0, 0,
0, 0, 0, 0, 0,

0, 0, 0, 0, 0,
0, 0, 0, 0, 0,
0, 0, 0, 0, 0,
0, 0, 0, 0, 0,
0, 0, 0, 0, 0,
0, 0, 0, 0, 0,
0, 0, 0, 0, 0,
0, 0, 0, 0, 0,

0, 0, 0, 0, 0,
0, 0, 0, 0, 0,
0, 0, 0, 0, 0,
0, 0, 0, 0, 0,
0, 0, 0, 0, 0,
0, 0, 0, 0, 0,
0, 0, 0, 0, 0,
0, 0, 0, 0, 0,

0, 0, 0, 0, 0,
0, 0, 0, 0, 0,
0, 0, 0, 0, 0,
0, 0, 0, 0, 0,
0, 0, 0, 0, 0,
0, 0, 0, 0, 0,
0, 0, 0, 0, 0,
0, 0, 0, 0, 0];

CLASS_DETAILS_INPUT =  [
E, T1, 30, 1, 0,
C1, T19, 60, 1, 0,
C2, T19, 60, 3, 0,
C3, T9, 80, 1, 0,
C4, T31, 80, 2, 3,
C5, T9, 80, 3, 0,
C6, T17, 80, 1, 0,
C7, T17, 80, 2, 3,
C8, T17, 80, 3, 0,
C9, T13, 80, 1, 0,
C10, T13, 80, 2, 3,
C11, T13, 80, 3, 0,
C12, T2, 100, 1, 0,
C13, T2, 100, 2, 3,
C14, T2, 100, 3, 0,
C15, T13, 64, 1, 0,
C16, T13, 64, 2, 2,
C17, T13, 64, 3, 0,
C18, T15, 60, 1, 0,
C19, T15, 60, 2, 2,
C20, T15, 60, 3, 0,
C21, T20, 64, 1, 0,
C22, T20, 64, 3, 0,
C23, T2, 77, 1, 0,
C24, T2, 77, 3, 0,
C25, T33, 90, 1, 0,
C26, T33, 90, 2, 3,
C27, T33, 90, 3, 0,
C28, T14, 34, 1, 0,
C29, T23, 107, 1, 0,
C30, T18, 107, 2, 4,
C31, T23, 107, 3, 0,
C32, T28, 40, 1, 0,
C33, T24, 40, 4, 2,
C34, T28, 40, 3, 0,
C35, T4, 107, 1, 0,
C36, T27, 107, 4, 4,
C37, T4, 107, 3, 0,
C38, T33, 207, 1, 0,
C39, T1, 71, 1, 0,
C40, T1, 71, 3, 0,
C41, T30, 75, 1, 0,
C42, T24, 75, 2, 3,
C43, T30, 75, 3, 0,
C44, T8, 150, 1, 0,
C45, T32, 150, 2, 5,
C46, T8, 150, 3, 0,
C47, T16, 78, 1, 0,
C48, T21, 75, 2, 3,
C49, T16, 78, 3, 0,
C50, T34, 30, 1, 0,
C51, T31, 30, 2, 1,
C52, T34, 30, 3, 0,
C53, T30, 120, 1, 0,
C54, T21, 120, 2, 4,
C55, T30, 120, 3, 0,
C56, T10, 141, 1, 0,
C57, T18, 141, 2, 5,
C58, T10, 141, 3, 0,
C59, T5, 60, 1, 0,
C60, T5, 60, 3, 0,
C61, T28, 34, 1, 0,
C62, T28, 34, 2, 1,
C63, T28, 34, 3, 0,
C64, T35, 30, 1, 0,
C65, T24, 30, 2, 1,
C66, T35, 30, 3, 0,
C67, T29, 30, 1, 0,
C68, T18, 30, 2, 1,
C69, T29, 30, 3, 0,
C70, T33, 60, 1, 0,
C71, T24, 60, 2, 2,
C72, T33, 60, 3, 0,
C73, T3, 30, 1, 0,
C74, T3, 30, 2, 1,
C75, T3, 30, 3, 0,
C76, T34, 47, 1, 0,
C77, T34, 47, 3, 0,
C78, T8, 47, 1, 0,
C79, T8, 47, 3, 0,
C80, T20, 30, 1, 0,
C81, T24, 30, 2, 1,
C82, T20, 30, 3, 0,
C83, T6, 30, 1, 0,
C84, T27, 30, 2, 1,
C85, T6, 30, 3, 0,
C86, T10, 47, 1, 0,
C87, T10, 47, 3, 0,
C88, T35, 30, 5, 0,
C89, T32, 30, 4, 1,
C90, T35, 30, 3, 0,
C91, T25, 40, 5, 0,
C92, T25, 40, 3, 0,
C93, T7, 30, 5, 0,
C94, T7, 30, 4, 1,
C95, T26, 30, 5, 0,
C96, T18, 30, 4, 1,
C97, T26, 30, 3, 0,
C98, T5, 40, 5, 0,
C99, T14, 40, 5, 0,
C100, T14, 40, 3, 0,
C101, T11, 50, 5, 0,
C102, T4, 40, 5, 0,
C103, T4, 40, 3, 0,
C104, T22, 30, 5, 0,
C105, T22, 30, 4, 1,
C106, T12, 40, 5, 0,
C107, T12, 40, 3, 0,
C108, T3, 30, 5, 0,
C109, T3, 30, 4, 1,
C110, T3, 30, 3, 0]

